122	0

0	3	2	3	4
6	6	5	6	9	10	11	13
10	5	12	14	15	19	23
7	5	7	9	10	11	13
3	1	8
2	1	7
1	1	8
1	5	12	14	15	19	23
6	7	16	17	18	20	21	22	24
6	7	16	17	18	20	21	22	24
5	3	14	15	19
4	8	17	25	26	27	28	29	30	31
5	3	14	15	19
1	7	16	17	18	20	21	22	24
3	7	25	26	27	28	29	30	31
7	8	32	33	34	35	36	37	38	43
7	6	32	33	36	37	38	43
6	3	26	28	29
9	6	32	33	36	37	38	43
4	5	25	26	27	28	29
3	6	25	26	27	28	29	30
5	5	25	26	27	28	29
9	3	26	28	29
2	7	25	26	27	28	29	30	31
2	8	32	33	34	35	36	37	38	43
1	8	32	33	34	35	36	37	38	43
3	6	32	33	36	37	38	43
3	9	39	40	41	42	44	45	48	49	51
2	6	32	33	36	37	38	43
5	6	32	33	36	37	38	43
6	6	32	33	36	37	38	43
7	7	39	40	42	44	48	49	51
4	9	39	40	41	42	44	45	48	49	51
9	5	39	40	42	44	51
8	7	39	40	42	44	48	49	51
3	9	39	40	41	42	44	45	48	49	51
8	5	39	40	42	44	51
8	5	39	40	42	44	51
8	4	53	54	56	58
7	6	52	53	54	56	58	59
9	6	46	52	53	54	56	59
4	8	46	47	50	52	53	54	56	59
10	6	46	47	50	51	52	59
5	6	46	52	53	54	56	59
10	6	52	53	54	56	58	59
5	3	55	57	58
7	2	55	57
8	6	52	53	54	56	58	59
9	4	53	54	56	58
9	3	60	61	64
6	4	53	54	56	58
4	2	55	57
5	3	60	61	64
3	2	55	57
8	2	67	74
10	3	66	67	74
2	3	60	61	64
4	4	62	63	65	66
10	4	62	63	65	66
4	4	62	63	65	66
7	2	67	74
7	6	71	72	75	78	79	80
3	2	67	74
10	2	69	73
3	2	67	74
6	6	71	72	75	78	79	80
1	4	68	69	70	73
5	3	75	78	80
1	6	71	72	75	78	79	80
5	3	75	78	80
4	2	76	77
7	5	81	82	84	85	86
2	3	75	78	80
8	2	76	77
2	2	76	77
1	6	81	82	83	84	85	86
6	2	87	89
3	6	81	82	83	84	85	86
5	6	81	82	83	84	85	86
5	5	81	82	84	85	86
10	5	90	91	92	93	94
10	5	90	91	92	93	94
6	1	89
3	2	87	89
3	2	87	89
1	3	87	88	89
7	5	90	91	92	93	94
7	5	90	91	92	93	94
1	5	90	91	92	93	94
4	1	95
10	4	97	98	99	101
7	4	97	98	99	101
10	4	97	98	99	101
4	1	95
1	4	96	97	98	99
6	3	100	101	102
6	2	100	104
4	2	100	102
9	5	103	104	105	106	110
5	4	103	105	106	110
10	4	103	105	106	110
5	5	103	104	105	106	110
1	2	107	108
3	2	107	108
9	4	111	113	114	117
2	1	108
9	3	111	113	117
4	3	109	112	114
6	3	111	113	117
7	4	111	113	114	117
8	3	118	119	120
9	3	115	116	117
6	2	115	116
9	2	115	116
2	3	118	119	120
2	3	118	119	120
8	1	121
3	1	121
9	1	122
2	1	121
4	1	122
0	0
